WARNING: for repeatability, setting FPU to use double precision
============================[ Problem Statistics ]=============================
|                                                                             |
|  Number of variables:            50                                         |
|  Number of clauses:             218                                         |
|  Parse time:                   0.00 s                                       |
|                                                                             |
============================[ Search Statistics ]==============================
| Conflicts |          ORIGINAL         |          LEARNT          | Progress |
|           |    Vars  Clauses Literals |    Limit  Clauses Lit/Cl |          |
===============================================================================
===============================================================================
restarts              : 1
conflicts             : 67             (44548 /sec)
decisions             : 77             (0.00 % random) (51197 /sec)
propagations          : 983            (653590 /sec)
conflict literals     : 242            (13.88 % deleted)
Memory used           : 20.00 MB
CPU time              : 0.001504 s

UNSATISFIABLE
